%chk=D:\soft\g16w\aminoacids\ala.chk
# hf/3-21g geom=connectivity

Title Card Required

0 1
 N                 -1.73313458   -1.08490409   -0.43982366
 H                 -0.73357458   -1.11457009   -0.43982366
 C                 -2.42008858    0.19090791   -0.43982366
 H                 -3.04492158    0.26771091   -1.32964666
 C                 -3.30671158    0.33702991    0.79231734
 C                 -1.42960958    1.34651891   -0.43982366
 H                 -2.69393858    0.27138191    1.69137234
 H                 -3.80986758    1.30359091    0.76596034
 H                 -4.05094658   -0.45929209    0.80154934
 O                 -0.19268358    1.11503391   -0.43982366
 ?s                -1.84481058    2.52554791   -0.43982366
 ?s                -2.38997458   -2.14841809   -0.43982366

 1 2 1.0 3 1.0 12 1.0
 2
 3 4 1.0 5 1.0 6 1.0
 4
 5 7 1.0 8 1.0 9 1.0
 6 10 2.0 11 1.0
 7
 8
 9
 10
 11
 12

