%chk=D:\soft\g16w\aminoacids\asp.chk
# hf/3-21g geom=connectivity

Title Card Required

0 1
 N                 -3.49901717   -0.14969064    0.03097061
 H                 -2.49945717   -0.17935664    0.03097061
 C                 -4.18597117    1.12612136    0.03097061
 H                 -4.81080417    1.20292436   -0.85885239
 C                 -5.07259417    1.27224336    1.26311161
 C                 -3.19549217    2.28173236    0.03097061
 H                 -5.81682917    0.47592136    1.27234361
 H                 -4.45982117    1.20659536    2.16216661
 O                 -1.95856617    2.05024736    0.03097061
 ?s                -3.61069317    3.46076136    0.03097061
 ?s                -4.15585617   -1.21320364    0.03097061
 C                 -5.78310999    2.63801351    1.22517537
 O                 -6.38132576    3.19429258    0.30525510
 O                 -5.71008545    3.28947874    2.41331277
 H                 -6.16502620    4.14596142    2.36205645

 1 2 1.0 3 1.0 11 1.0
 2
 3 4 1.0 5 1.0 6 1.0
 4
 5 7 1.0 8 1.0 12 1.0
 6 9 2.0 10 1.0
 7
 8
 9
 10
 11
 12 13 2.0 14 1.0
 13
 14 15 1.0
 15

