%chk=D:\soft\g16w\aminoacids\cys.chk
# hf/3-21g geom=connectivity

Title Card Required

0 1
 N                 -1.98064229   -1.54359803    1.88757521
 H                 -0.98108229   -1.57326403    1.88757521
 C                 -2.66759629   -0.26778603    1.88757521
 H                 -3.29242929   -0.19098303    0.99775221
 C                 -3.55421929   -0.12166403    3.11971621
 C                 -1.67711729    0.88782497    1.88757521
 H                 -4.29845429   -0.91798603    3.12894821
 H                 -2.94144629   -0.18731203    4.01877121
 S                 -4.47724629    1.42952797    3.25360821
 O                 -0.44019129    0.65633997    1.88757521
 H                 -5.07476029    1.13679797    4.40520921
 ?s                -2.09231829    2.06685397    1.88757521
 ?s                -2.63748229   -2.60711203    1.88757521

 1 2 1.0 3 1.0 13 1.0
 2
 3 4 1.0 5 1.0 6 1.0
 4
 5 7 1.0 8 1.0 9 1.0
 6 10 2.0 12 1.0
 7
 8
 9 11 1.0
 10
 11
 12
 13

