%chk=D:\soft\g16w\aminoacids\his.chk
# hf/3-21g geom=connectivity

Title Card Required

0 1
 N                 -0.98056437   -1.38665359    0.13742855
 H                  0.01899563   -1.41631959    0.13742855
 C                 -1.66751837   -0.11084159    0.13742855
 H                 -2.29235137   -0.03403859   -0.75239445
 C                 -2.55414137    0.03528041    1.36956955
 C                 -0.67703937    1.04476941    0.13742855
 H                 -3.29837637   -0.76104159    1.37880155
 H                 -1.94136837   -0.03036759    2.26862455
 C                 -3.31357037    1.33737741    1.45851355
 O                  0.55988663    0.81328441    0.13742855
 N                 -4.16376037    1.62317841    2.52039555
 C                 -3.35044837    2.41498141    0.62988355
 H                 -4.35458737    1.01937141    3.30722655
 C                 -4.67795137    2.82226941    2.31992455
 N                 -4.20426537    3.30750541    1.19909055
 H                 -2.86075637    2.65488841   -0.31391045
 H                 -5.37786137    3.24280941    3.04198555
 ?s                -1.09224037    2.22379841    0.13742855
 ?s                -1.63740437   -2.45016759    0.13742855

 1 2 1.0 3 1.0 19 1.0
 2
 3 4 1.0 5 1.0 6 1.0
 4
 5 7 1.0 8 1.0 9 1.0
 6 10 2.0 18 1.0
 7
 8
 9 11 1.0 12 2.0
 10
 11 13 1.0 14 1.0
 12 15 1.0 16 1.0
 13
 14 15 2.0 17 1.0
 15
 16
 17
 18
 19

