%chk=D:\soft\g16w\aminoacids\ile.chk
# hf/3-21g geom=connectivity

Title Card Required

0 1
 N                 -3.15766810   -0.99999260    0.44735239
 H                 -2.15810810   -1.02965860    0.44735239
 C                 -3.84462210    0.27581940    0.44735239
 H                 -4.46945510    0.35262240   -0.44247061
 C                 -4.71857510    0.38254740    1.69251939
 C                 -2.85414310    1.43143040    0.44735239
 H                 -5.45135010   -0.42438560    1.69298639
 C                 -3.84457410    0.27577540    2.93764839
 C                 -5.44155910    1.72527540    1.69251939
 O                 -1.61721710    1.19994540    0.44735239
 H                 -3.11179910    1.08270840    2.93811539
 H                 -4.46877310    0.35200340    3.82796539
 H                 -3.32756610   -0.68380960    2.93808839
 H                 -4.70938410    2.53275240    1.69251939
 H                 -6.06639210    1.80207940    0.80269639
 C                 -6.31551210    1.83200440    2.93768539
 H                 -5.69127910    1.75574440    3.82797639
 H                 -6.83252010    2.79158840    2.93818039
 H                 -7.04828710    1.02507140    2.93815339
 ?s                -3.26934410    2.61045940    0.44735239
 ?s                -3.81450810   -2.06350660    0.44735239

 1 2 1.0 3 1.0 21 1.0
 2
 3 4 1.0 5 1.0 6 1.0
 4
 5 7 1.0 8 1.0 9 1.0
 6 10 2.0 20 1.0
 7
 8 11 1.0 12 1.0 13 1.0
 9 14 1.0 15 1.0 16 1.0
 10
 11
 12
 13
 14
 15
 16 17 1.0 18 1.0 19 1.0
 17
 18
 19
 20
 21

