%chk=D:\soft\g16w\aminoacids\leu.chk
# hf/3-21g geom=connectivity

Title Card Required

0 1
 N                 -3.42001490   -2.06567460    1.05894163
 H                 -2.42045490   -2.09534060    1.05894163
 C                 -4.10696890   -0.78986260    1.05894163
 H                 -4.73180190   -0.71305960    0.16911863
 C                 -4.99359190   -0.64374060    2.29108263
 C                 -3.11648990    0.36574840    1.05894163
 H                 -5.73782690   -1.44006260    2.30031463
 H                 -4.38081890   -0.70938860    3.19013763
 C                 -5.69718690    0.70872640    2.25351563
 O                 -1.87956390    0.13426340    1.05894163
 H                 -4.95354890    1.50561140    2.24473263
 C                 -6.55511090    0.80062740    0.99607963
 C                 -6.58381090    0.85484940    3.48565763
 H                 -7.29933490    0.00428540    1.00437663
 H                 -7.05825590    1.76716640    0.96873463
 H                 -5.92181690    0.69621040    0.11509363
 H                 -5.97103690    0.78920040    4.38471163
 H                 -7.08696690    1.82140940    3.45929963
 H                 -7.32804590    0.05852740    3.49488863
 ?s                -3.53169090    1.54477740    1.05894163
 ?s                -4.07685490   -3.12918860    1.05894163

 1 2 1.0 3 1.0 21 1.0
 2
 3 4 1.0 5 1.0 6 1.0
 4
 5 7 1.0 8 1.0 9 1.0
 6 10 2.0 20 1.0
 7
 8
 9 11 1.0 12 1.0 13 1.0
 10
 11
 12 14 1.0 15 1.0 16 1.0
 13 17 1.0 18 1.0 19 1.0
 14
 15
 16
 17
 18
 19
 20
 21

