%chk=D:\soft\g16w\aminoacids\thr.chk
# hf/3-21g geom=connectivity

Title Card Required

0 1
 N                 -3.86658850   -0.11638259    2.50867668
 H                 -2.86702850   -0.14604859    2.50867668
 C                 -4.55354250    1.15942941    2.50867668
 H                 -5.17837550    1.23623241    1.61885368
 C                 -5.44016550    1.30555141    3.74081768
 C                 -3.56306350    2.31504041    2.50867668
 H                 -5.94332150    2.27211241    3.71446068
 C                 -6.48111250    0.19114341    3.75305168
 O                 -4.63564150    1.21933341    4.91988868
 O                 -2.32613750    2.08355541    2.50867668
 H                 -5.97868050   -0.77578059    3.77987568
 H                 -7.11512650    0.29512341    4.63357168
 H                 -7.09460950    0.25642841    2.85446368
 H                 -5.19377850    1.31131841    5.69553168
 ?s                -3.97826450    3.49406941    2.50867668
 ?s                -4.52342850   -1.17989659    2.50867668

 1 2 1.0 3 1.0 16 1.0
 2
 3 4 1.0 5 1.0 6 1.0
 4
 5 7 1.0 8 1.0 9 1.0
 6 10 2.0 15 1.0
 7
 8 11 1.0 12 1.0 13 1.0
 9 14 1.0
 10
 11
 12
 13
 14
 15
 16

