%chk=D:\Gaussian 09w\75.chk
# opt ump2/6-311+g(d,p) geom=connectivity

Title Card Required

0 1
 C                  0.00000000    0.75208813    0.55400987
 C                  0.00000000    1.60189908   -0.55136140
 C                  0.00000000   -0.75208813    0.55400987
 C                  0.00000000    1.26846590   -1.91320595
 H                  0.00000000    2.66886098   -0.32082680
 C                  0.00000000    1.15404027    1.90453923
 C                  0.00000000   -1.60189908   -0.55136140
 C                  0.00000000   -1.15404027    1.90453923
 C                  0.00000000   -0.00000000   -2.50961092
 H                  0.00000000    2.11076441   -2.60296640
 C                  0.00000000    0.00000000    2.71309741
 H                  0.00000000    2.18245419    2.24942116
 C                  0.00000000   -1.26846590   -1.91320595
 H                  0.00000000   -2.66886098   -0.32082680
 H                  0.00000000   -2.18245419    2.24942116
 H                  0.00000000   -0.00000000   -3.59920885
 H                  0.00000000    0.00000000    3.79925297
 H                  0.00000000   -2.11076441   -2.60296640

 1 2 1.5 3 1.5 6 1.5
 2 4 1.5 5 1.0
 3 7 1.5 8 1.5
 4 9 1.5 10 1.0
 5
 6 12 1.0 11 1.5
 7 13 1.5 14 1.0
 8 11 1.5 15 1.0
 9 13 1.5 16 1.0
 10
 11 17 1.0
 12
 13 18 1.0
 14
 15
 16
 17
 18

