%chk=D:\Gaussian 09w\boat.chk
# hf/3-21g geom=connectivity

Title Card Required

0 1
 C                 -3.47334698   -1.88502325    0.77057328
 C                 -1.95645698   -1.88502325    0.77057328
 C                 -1.37873498   -0.48237325    0.77057328
 C                 -2.29162198    0.49826375    1.47578528
 C                 -3.63035498    0.61919275    0.77221928
 C                 -4.03454398   -0.66497525    0.07247428
 H                 -0.37483398   -0.48914125    1.26915928
 H                 -1.59181398   -2.44385825    1.67204528
 H                 -1.57821898   -2.43510625   -0.13079872
 H                 -3.66340298   -0.64765325   -0.98629272
 H                 -3.84724298   -1.90506725    1.82838528
 H                 -2.45258398    0.15401875    2.53139428
 H                 -1.79993798    1.50428475    1.52462128
 H                 -3.58717798    1.44748275    0.01730028
 H                 -4.41275598    0.90222875    1.52424528
 H                 -5.15253598   -0.73480625    0.03234628
 H                 -3.84917598   -2.81345525    0.26727528
 H                 -1.22277498   -0.14106225   -0.28683272

 1 2 1.0 6 1.0 11 1.0 17 1.0
 2 3 1.0 8 1.0 9 1.0
 3 4 1.0 7 1.0 18 1.0
 4 5 1.0 12 1.0 13 1.0
 5 6 1.0 14 1.0 15 1.0
 6 10 1.0 16 1.0
 7
 8
 9
 10
 11
 12
 13
 14
 15
 16
 17
 18

