%chk=D:\Gaussian 09w\C2H4Cl2.chk
# hf/3-21g geom=connectivity

Title Card Required

0 1
 C                 -0.97917872    1.32488477   -0.01281814
 H                 -0.62250588    1.82928296   -0.88646964
 H                 -2.04917872    1.32489796   -0.01281814
 C                 -0.46586301   -0.12704738   -0.01281814
 H                 -0.82253809   -0.63144636   -0.88646827
 H                  0.60413699   -0.12706003   -0.01282049
 Cl                -0.39250190    2.15454909    1.42421611
 Cl                -1.05253625   -0.95671131    1.42421780

 1 2 1.0 3 1.0 4 1.0 7 1.0
 2
 3
 4 5 1.0 6 1.0 8 1.0
 5
 6
 7
 8

