%chk=D:\Gaussian 09w\CHCl3.chk
# opt b3lyp/cc-pvqz geom=connectivity

Title Card Required

0 1
 C                  0.00001246    0.00004443    0.46634267
 H                  0.00003837    0.00009356    1.52705567
 Cl                 0.26447508    1.71214355   -0.08493491
 Cl                -1.61502578   -0.62704124   -0.08473672
 Cl                 1.35054405   -1.08512350   -0.08474670

 1 2 1.0 3 1.0 4 1.0 5 1.0
 2
 3
 4
 5

