%chk=D:\Gaussian 09w\HCN.chk
# hf/3-21g geom=connectivity

Title Card Required

0 1
 C                 -0.00000012    0.27586206    0.00000000
 H                 -1.07000012    0.27586206    0.00000000
 N                  1.14659988    0.27586206    0.00000000

 1 2 1.0 3 3.0
 2
 3

